p cnf 81 190
c uncontrollable inputs:
a 5 6 7 8 9 10 11 12 0
c state variables:
a 13 14 0
c next state variables:
a 15 16 0
c controllable inputs
d 1 5 6 7 8 9 10 11 12 13 14 0
d 2 5 6 7 8 9 10 11 12 13 14 0
d 3 5 6 7 8 9 10 11 12 13 14 0
d 4 5 6 7 8 9 10 11 12 13 14 0
c winning region (state)
d 17 13 14 0
c winning region (next state)
d 18 15 16 0
c tseitin variables
e 19 20 21 22 23 24 25 26 27 28 29 30 31 32 33 34 35 36 37 38 39 40 41 42 43 44 45 46 47 48 49 50 51 52 53 54 55 56 57 58 59 60 61 62 63 64 65 66 67 68 69 70 71 72 73 74 75 76 77 78 79 80 81 0
c clauses:
-19 -15 0
-19 13 0
19 15 -13 0
-20 15 0
-20 -13 0
20 -15 13 0
-21 -19 0
-21 -20 0
21 19 20 0
-22 -16 0
-22 14 0
22 16 -14 0
-23 16 0
-23 -14 0
23 -16 14 0
-24 -22 0
-24 -23 0
24 22 23 0
-25 21 0
-25 24 0
25 -21 -24 0
-26 18 0
-26 -17 0
26 -18 17 0
-27 -18 0
-27 17 0
27 18 -17 0
-28 -26 0
-28 -27 0
28 26 27 0
-29 25 0
-29 -28 0
29 -25 28 0
-30 9 0
-30 5 0
30 -9 -5 0
-31 10 0
-31 30 0
31 -10 -30 0
-32 -10 0
-32 -30 0
32 10 30 0
-33 -31 0
-33 -32 0
33 31 32 0
34 -6 0
34 33 0
-34 6 -33 0
-35 6 0
-35 -33 0
35 -6 33 0
-36 34 0
-36 -35 0
36 -34 35 0
-37 2 0
-37 36 0
37 -2 -36 0
-38 -2 0
-38 -36 0
38 2 36 0
-39 -37 0
-39 -38 0
39 37 38 0
-40 -9 0
-40 -5 0
40 9 5 0
41 -30 0
41 -40 0
-41 30 40 0
-42 1 0
-42 41 0
42 -1 -41 0
-43 -1 0
-43 -41 0
43 1 41 0
-44 -42 0
-44 -43 0
44 42 43 0
-45 39 0
-45 44 0
45 -39 -44 0
-46 -6 0
-46 -31 0
46 6 31 0
47 -32 0
47 -46 0
-47 32 46 0
-48 11 0
-48 -47 0
48 -11 47 0
-49 -11 0
-49 47 0
49 11 -47 0
-50 -48 0
-50 -49 0
50 48 49 0
51 -7 0
51 50 0
-51 7 -50 0
-52 7 0
-52 -50 0
52 -7 50 0
-53 51 0
-53 -52 0
53 -51 52 0
-54 3 0
-54 53 0
54 -3 -53 0
-55 -3 0
-55 -53 0
55 3 53 0
-56 -54 0
-56 -55 0
56 54 55 0
-57 45 0
-57 56 0
57 -45 -56 0
-58 -7 0
-58 -48 0
58 7 48 0
59 -49 0
59 -58 0
-59 49 58 0
-60 -12 0
-60 59 0
60 12 -59 0
-61 12 0
-61 -59 0
61 -12 59 0
-62 -60 0
-62 -61 0
62 60 61 0
63 -8 0
63 62 0
-63 8 -62 0
-64 8 0
-64 -62 0
64 -8 62 0
-65 63 0
-65 -64 0
65 -63 64 0
-66 4 0
-66 65 0
66 -4 -65 0
-67 -4 0
-67 -65 0
67 4 65 0
-68 -66 0
-68 -67 0
68 66 67 0
-69 57 0
-69 68 0
69 -57 -68 0
-70 -16 0
-70 -69 0
70 16 69 0
-71 16 0
-71 69 0
71 -16 -69 0
-72 -70 0
-72 -71 0
72 70 71 0
-73 15 0
-73 72 0
73 -15 -72 0
-74 73 0
-74 27 0
74 -73 -27 0
-75 14 0
-75 13 0
75 -14 -13 0
-76 17 0
-76 75 0
76 -17 -75 0
-77 -14 0
-77 -13 0
77 14 13 0
-78 -17 0
-78 77 0
78 17 -77 0
-79 -76 0
-79 -78 0
79 76 78 0
-80 -74 0
-80 79 0
80 74 -79 0
-81 -29 0
-81 80 0
81 29 -80 0
81 0
